NAME : local_3
TYPE : ATSP
DIMENSION : 26
EDGE_WEIGHT_TYPE : EXPLICIT
EDGE_WEIGHT_FORMAT : FULL_MATRIX
EDGE_WEIGHT_SECTION
0 10000000 10000000 10000000 10000000 643 178 10000000 10000000 816 10000000 10000000 699 10000000 621 10000000 10000000 503 595 10000000 10000000 708 10000000 810 718 10000000 
0 0 10000000 10000000 612 909 10000000 795 864 872 631 10000000 10000000 10000000 10000000 10000000 10000000 943 10000000 10000000 693 10000000 394 10000000 10000000 10000000 
0 10000000 0 10000000 852 10000000 10000000 600 10000000 10000000 10000000 729 10000000 789 10000000 651 647 10000000 10000000 10000000 10000000 10000000 10000000 10000000 10000000 896 
0 10000000 10000000 0 10000000 830 10000000 10000000 279 642 495 996 10000000 10000000 10000000 10000000 10000000 10000000 10000000 10000000 10000000 10000000 10000000 624 10000000 818 
0 612 852 10000000 0 10000000 10000000 573 1018 10000000 833 10000000 10000000 10000000 10000000 10000000 10000000 10000000 10000000 10000000 641 10000000 930 10000000 10000000 10000000 
0 909 10000000 830 10000000 0 587 10000000 825 188 761 10000000 832 10000000 677 1085 10000000 259 900 10000000 10000000 10000000 905 362 1105 880 
0 10000000 10000000 10000000 10000000 587 0 10000000 10000000 737 10000000 10000000 540 10000000 739 923 10000000 520 458 10000000 10000000 674 10000000 679 649 937 
0 795 600 10000000 573 10000000 10000000 0 10000000 10000000 10000000 10000000 10000000 524 10000000 899 450 10000000 10000000 886 439 10000000 919 10000000 10000000 10000000 
0 864 10000000 279 1053 825 10000000 10000000 0 644 242 10000000 10000000 10000000 10000000 10000000 10000000 10000000 10000000 10000000 10000000 10000000 10000000 736 10000000 10000000 
0 872 10000000 642 10000000 188 737 10000000 644 0 608 10000000 886 10000000 847 1045 10000000 441 943 10000000 10000000 10000000 949 277 10000000 808 
0 631 10000000 495 833 761 10000000 10000000 242 608 0 10000000 10000000 10000000 10000000 10000000 10000000 945 10000000 10000000 10000000 10000000 933 772 10000000 10000000 
0 10000000 729 991 10000000 10000000 10000000 10000000 10000000 10000000 10000000 0 873 10000000 10000000 597 10000000 10000000 10000000 10000000 10000000 10000000 10000000 897 10000000 398 
0 10000000 10000000 10000000 10000000 832 540 10000000 10000000 886 10000000 873 0 880 10000000 465 852 965 169 982 10000000 585 10000000 686 465 577 
0 10000000 789 10000000 10000000 10000000 10000000 524 10000000 10000000 10000000 10000000 880 0 10000000 668 142 10000000 882 418 746 788 10000000 10000000 608 10000000 
0 10000000 10000000 10000000 10000000 677 739 10000000 10000000 847 10000000 10000000 10000000 10000000 0 10000000 10000000 424 10000000 10000000 10000000 10000000 761 10000000 10000000 10000000 
0 10000000 651 10000000 10000000 1089 923 899 10000000 1016 10000000 597 465 668 10000000 0 580 10000000 589 943 10000000 825 10000000 791 624 495 
0 10000000 647 10000000 10000000 10000000 10000000 450 10000000 10000000 10000000 10000000 852 142 10000000 580 0 10000000 881 558 752 857 10000000 10000000 657 1026 
0 943 10000000 10000000 10000000 259 520 10000000 10000000 441 945 10000000 936 10000000 424 10000000 10000000 0 899 10000000 10000000 10000000 827 600 1089 10000000 
0 10000000 10000000 10000000 10000000 856 458 10000000 10000000 943 10000000 10000000 169 882 10000000 589 881 899 0 910 10000000 443 10000000 778 368 744 
0 10000000 10000000 10000000 10000000 10000000 10000000 886 10000000 10000000 10000000 10000000 982 418 10000000 943 558 10000000 910 0 942 616 10000000 10000000 550 10000000 
0 693 10000000 10000000 641 10000000 10000000 439 10000000 10000000 10000000 10000000 10000000 746 10000000 10000000 752 10000000 10000000 942 0 10000000 705 10000000 10000000 10000000 
0 10000000 10000000 10000000 10000000 10000000 674 10000000 10000000 10000000 10000000 10000000 585 788 10000000 825 857 10000000 443 616 10000000 0 10000000 10000000 221 10000000 
0 394 10000000 10000000 930 905 10000000 919 10000000 949 933 10000000 10000000 10000000 761 10000000 10000000 827 10000000 10000000 767 10000000 0 10000000 10000000 10000000 
0 10000000 10000000 624 10000000 362 679 10000000 736 277 772 897 686 10000000 10000000 816 10000000 600 778 10000000 10000000 10000000 10000000 0 1011 542 
0 10000000 10000000 10000000 10000000 1079 649 10000000 10000000 10000000 10000000 10000000 465 608 10000000 624 657 1076 368 550 10000000 221 10000000 986 0 968 
0 10000000 10000000 10000000 10000000 10000000 10000000 10000000 10000000 10000000 10000000 10000000 10000000 10000000 10000000 10000000 10000000 10000000 10000000 10000000 10000000 10000000 10000000 10000000 10000000 0 
EOF